Ipopt 3.14.19: linear_solver=mumps
output_file=ipopt.out
file_print_level=12


******************************************************************************
This program contains Ipopt, a library for large-scale nonlinear optimization.
 Ipopt is released as open source code under the Eclipse Public License (EPL).
         For more information visit https://github.com/coin-or/Ipopt
******************************************************************************

This is Ipopt version 3.14.19, running with linear solver MUMPS 5.8.1.

Number of nonzeros in equality constraint Jacobian...:      603
Number of nonzeros in inequality constraint Jacobian.:        0
Number of nonzeros in Lagrangian Hessian.............:       66

Total number of variables............................:      175
                     variables with only lower bounds:       91
                variables with lower and upper bounds:       22
                     variables with only upper bounds:        0
Total number of equality constraints.................:      175
Total number of inequality constraints...............:        0
        inequality constraints with only lower bounds:        0
   inequality constraints with lower and upper bounds:        0
        inequality constraints with only upper bounds:        0

iter    objective    inf_pr   inf_du lg(mu)  ||d||  lg(rg) alpha_du alpha_pr  ls
   0  0.0000000e+00 3.30e+02 1.00e+00  -1.0 0.00e+00    -  0.00e+00 0.00e+00   0
   1  0.0000000e+00 3.30e+00 4.25e+02  -1.0 6.52e+01    -  2.30e-03 9.90e-01f  1
   2  0.0000000e+00 3.27e-02 4.21e+00  -1.0 6.52e-01    -  9.90e-01 9.90e-01h  1
   3  0.0000000e+00 3.28e-09 0.00e+00  -1.0 6.46e-03    -  1.00e+00 1.00e+00h  1

Number of Iterations....: 3

                                   (scaled)                 (unscaled)
Objective...............:   0.0000000000000000e+00    0.0000000000000000e+00
Dual infeasibility......:   0.0000000000000000e+00    0.0000000000000000e+00
Constraint violation....:   3.2791820370192681e-09    3.2791820370192681e-09
Variable bound violation:   0.0000000000000000e+00    0.0000000000000000e+00
Complementarity.........:   0.0000000000000000e+00    0.0000000000000000e+00
Overall NLP error.......:   3.2791820370192681e-09    3.2791820370192681e-09


Number of objective function evaluations             = 4
Number of objective gradient evaluations             = 4
Number of equality constraint evaluations            = 4
Number of inequality constraint evaluations          = 0
Number of equality constraint Jacobian evaluations   = 4
Number of inequality constraint Jacobian evaluations = 0
Number of Lagrangian Hessian evaluations             = 3
Total seconds in IPOPT                               = 0.061

EXIT: Optimal Solution Found.
Ipopt 3.14.19: linear_solver=mumps
output_file=ipopt.out
file_print_level=12


******************************************************************************
This program contains Ipopt, a library for large-scale nonlinear optimization.
 Ipopt is released as open source code under the Eclipse Public License (EPL).
         For more information visit https://github.com/coin-or/Ipopt
******************************************************************************

This is Ipopt version 3.14.19, running with linear solver MUMPS 5.8.1.

Number of nonzeros in equality constraint Jacobian...:      603
Number of nonzeros in inequality constraint Jacobian.:        0
Number of nonzeros in Lagrangian Hessian.............:       66

Total number of variables............................:      175
                     variables with only lower bounds:       91
                variables with lower and upper bounds:       22
                     variables with only upper bounds:        0
Total number of equality constraints.................:      175
Total number of inequality constraints...............:        0
        inequality constraints with only lower bounds:        0
   inequality constraints with lower and upper bounds:        0
        inequality constraints with only upper bounds:        0

iter    objective    inf_pr   inf_du lg(mu)  ||d||  lg(rg) alpha_du alpha_pr  ls
   0  0.0000000e+00 3.00e+00 1.00e+00  -1.0 0.00e+00    -  0.00e+00 0.00e+00   0
   1  0.0000000e+00 3.00e-02 6.18e-02  -1.0 3.00e+00    -  9.83e-01 9.90e-01h  1
   2  0.0000000e+00 2.97e-04 9.90e+00  -1.0 3.00e-02    -  1.00e+00 9.90e-01h  1
   3  0.0000000e+00 7.21e-11 0.00e+00  -1.0 2.97e-04    -  1.00e+00 1.00e+00h  1

Number of Iterations....: 3

                                   (scaled)                 (unscaled)
Objective...............:   0.0000000000000000e+00    0.0000000000000000e+00
Dual infeasibility......:   0.0000000000000000e+00    0.0000000000000000e+00
Constraint violation....:   7.2069461509727262e-11    7.2069461509727262e-11
Variable bound violation:   0.0000000000000000e+00    0.0000000000000000e+00
Complementarity.........:   0.0000000000000000e+00    0.0000000000000000e+00
Overall NLP error.......:   7.2069461509727262e-11    7.2069461509727262e-11


Number of objective function evaluations             = 4
Number of objective gradient evaluations             = 4
Number of equality constraint evaluations            = 4
Number of inequality constraint evaluations          = 0
Number of equality constraint Jacobian evaluations   = 4
Number of inequality constraint Jacobian evaluations = 0
Number of Lagrangian Hessian evaluations             = 3
Total seconds in IPOPT                               = 0.061

EXIT: Optimal Solution Found.
Ipopt 3.14.19: linear_solver=mumps
output_file=ipopt.out
file_print_level=12


******************************************************************************
This program contains Ipopt, a library for large-scale nonlinear optimization.
 Ipopt is released as open source code under the Eclipse Public License (EPL).
         For more information visit https://github.com/coin-or/Ipopt
******************************************************************************

This is Ipopt version 3.14.19, running with linear solver MUMPS 5.8.1.

Number of nonzeros in equality constraint Jacobian...:      603
Number of nonzeros in inequality constraint Jacobian.:        0
Number of nonzeros in Lagrangian Hessian.............:       66

Total number of variables............................:      175
                     variables with only lower bounds:       91
                variables with lower and upper bounds:       22
                     variables with only upper bounds:        0
Total number of equality constraints.................:      175
Total number of inequality constraints...............:        0
        inequality constraints with only lower bounds:        0
   inequality constraints with lower and upper bounds:        0
        inequality constraints with only upper bounds:        0

iter    objective    inf_pr   inf_du lg(mu)  ||d||  lg(rg) alpha_du alpha_pr  ls
   0  0.0000000e+00 3.00e+00 1.00e+00  -1.0 0.00e+00    -  0.00e+00 0.00e+00   0
   1  0.0000000e+00 3.00e-02 6.18e-02  -1.0 3.00e+00    -  9.83e-01 9.90e-01h  1
   2  0.0000000e+00 2.97e-04 9.90e+00  -1.0 3.00e-02    -  1.00e+00 9.90e-01h  1
   3  0.0000000e+00 7.41e-11 0.00e+00  -1.0 2.97e-04    -  1.00e+00 1.00e+00h  1

Number of Iterations....: 3

                                   (scaled)                 (unscaled)
Objective...............:   0.0000000000000000e+00    0.0000000000000000e+00
Dual infeasibility......:   0.0000000000000000e+00    0.0000000000000000e+00
Constraint violation....:   7.4074080202990444e-11    7.4074080202990444e-11
Variable bound violation:   0.0000000000000000e+00    0.0000000000000000e+00
Complementarity.........:   0.0000000000000000e+00    0.0000000000000000e+00
Overall NLP error.......:   7.4074080202990444e-11    7.4074080202990444e-11


Number of objective function evaluations             = 4
Number of objective gradient evaluations             = 4
Number of equality constraint evaluations            = 4
Number of inequality constraint evaluations          = 0
Number of equality constraint Jacobian evaluations   = 4
Number of inequality constraint Jacobian evaluations = 0
Number of Lagrangian Hessian evaluations             = 3
Total seconds in IPOPT                               = 0.060

EXIT: Optimal Solution Found.
Ipopt 3.14.19: linear_solver=mumps
output_file=ipopt.out
file_print_level=12


******************************************************************************
This program contains Ipopt, a library for large-scale nonlinear optimization.
 Ipopt is released as open source code under the Eclipse Public License (EPL).
         For more information visit https://github.com/coin-or/Ipopt
******************************************************************************

This is Ipopt version 3.14.19, running with linear solver MUMPS 5.8.1.

Number of nonzeros in equality constraint Jacobian...:      603
Number of nonzeros in inequality constraint Jacobian.:        0
Number of nonzeros in Lagrangian Hessian.............:       66

Total number of variables............................:      175
                     variables with only lower bounds:       91
                variables with lower and upper bounds:       22
                     variables with only upper bounds:        0
Total number of equality constraints.................:      175
Total number of inequality constraints...............:        0
        inequality constraints with only lower bounds:        0
   inequality constraints with lower and upper bounds:        0
        inequality constraints with only upper bounds:        0

iter    objective    inf_pr   inf_du lg(mu)  ||d||  lg(rg) alpha_du alpha_pr  ls
   0  0.0000000e+00 3.00e+00 1.00e+00  -1.0 0.00e+00    -  0.00e+00 0.00e+00   0
   1  0.0000000e+00 3.00e-02 6.18e-02  -1.0 3.00e+00    -  9.83e-01 9.90e-01h  1
   2  0.0000000e+00 2.97e-04 9.90e+00  -1.0 3.00e-02    -  1.00e+00 9.90e-01h  1
   3  0.0000000e+00 7.63e-11 0.00e+00  -1.0 2.97e-04    -  1.00e+00 1.00e+00h  1

Number of Iterations....: 3

                                   (scaled)                 (unscaled)
Objective...............:   0.0000000000000000e+00    0.0000000000000000e+00
Dual infeasibility......:   0.0000000000000000e+00    0.0000000000000000e+00
Constraint violation....:   7.6338935173225764e-11    7.6338935173225764e-11
Variable bound violation:   0.0000000000000000e+00    0.0000000000000000e+00
Complementarity.........:   0.0000000000000000e+00    0.0000000000000000e+00
Overall NLP error.......:   7.6338935173225764e-11    7.6338935173225764e-11


Number of objective function evaluations             = 4
Number of objective gradient evaluations             = 4
Number of equality constraint evaluations            = 4
Number of inequality constraint evaluations          = 0
Number of equality constraint Jacobian evaluations   = 4
Number of inequality constraint Jacobian evaluations = 0
Number of Lagrangian Hessian evaluations             = 3
Total seconds in IPOPT                               = 0.060

EXIT: Optimal Solution Found.
Ipopt 3.14.19: linear_solver=mumps
output_file=ipopt.out
file_print_level=12


******************************************************************************
This program contains Ipopt, a library for large-scale nonlinear optimization.
 Ipopt is released as open source code under the Eclipse Public License (EPL).
         For more information visit https://github.com/coin-or/Ipopt
******************************************************************************

This is Ipopt version 3.14.19, running with linear solver MUMPS 5.8.1.

Number of nonzeros in equality constraint Jacobian...:      603
Number of nonzeros in inequality constraint Jacobian.:        0
Number of nonzeros in Lagrangian Hessian.............:       66

Total number of variables............................:      175
                     variables with only lower bounds:       91
                variables with lower and upper bounds:       22
                     variables with only upper bounds:        0
Total number of equality constraints.................:      175
Total number of inequality constraints...............:        0
        inequality constraints with only lower bounds:        0
   inequality constraints with lower and upper bounds:        0
        inequality constraints with only upper bounds:        0

iter    objective    inf_pr   inf_du lg(mu)  ||d||  lg(rg) alpha_du alpha_pr  ls
   0  0.0000000e+00 3.00e+00 1.00e+00  -1.0 0.00e+00    -  0.00e+00 0.00e+00   0
   1  0.0000000e+00 3.00e-02 6.18e-02  -1.0 3.00e+00    -  9.83e-01 9.90e-01h  1
   2  0.0000000e+00 2.97e-04 9.90e+00  -1.0 3.00e-02    -  1.00e+00 9.90e-01h  1
   3  0.0000000e+00 6.98e-11 0.00e+00  -1.0 2.97e-04    -  1.00e+00 1.00e+00h  1

Number of Iterations....: 3

                                   (scaled)                 (unscaled)
Objective...............:   0.0000000000000000e+00    0.0000000000000000e+00
Dual infeasibility......:   0.0000000000000000e+00    0.0000000000000000e+00
Constraint violation....:   6.9803940405677167e-11    6.9803940405677167e-11
Variable bound violation:   0.0000000000000000e+00    0.0000000000000000e+00
Complementarity.........:   0.0000000000000000e+00    0.0000000000000000e+00
Overall NLP error.......:   6.9803940405677167e-11    6.9803940405677167e-11


Number of objective function evaluations             = 4
Number of objective gradient evaluations             = 4
Number of equality constraint evaluations            = 4
Number of inequality constraint evaluations          = 0
Number of equality constraint Jacobian evaluations   = 4
Number of inequality constraint Jacobian evaluations = 0
Number of Lagrangian Hessian evaluations             = 3
Total seconds in IPOPT                               = 0.062

EXIT: Optimal Solution Found.
Ipopt 3.14.19: linear_solver=mumps
output_file=ipopt.out
file_print_level=12


******************************************************************************
This program contains Ipopt, a library for large-scale nonlinear optimization.
 Ipopt is released as open source code under the Eclipse Public License (EPL).
         For more information visit https://github.com/coin-or/Ipopt
******************************************************************************

This is Ipopt version 3.14.19, running with linear solver MUMPS 5.8.1.

Number of nonzeros in equality constraint Jacobian...:      603
Number of nonzeros in inequality constraint Jacobian.:        0
Number of nonzeros in Lagrangian Hessian.............:       66

Total number of variables............................:      175
                     variables with only lower bounds:       91
                variables with lower and upper bounds:       22
                     variables with only upper bounds:        0
Total number of equality constraints.................:      175
Total number of inequality constraints...............:        0
        inequality constraints with only lower bounds:        0
   inequality constraints with lower and upper bounds:        0
        inequality constraints with only upper bounds:        0

iter    objective    inf_pr   inf_du lg(mu)  ||d||  lg(rg) alpha_du alpha_pr  ls
   0  0.0000000e+00 3.00e+00 1.00e+00  -1.0 0.00e+00    -  0.00e+00 0.00e+00   0
   1  0.0000000e+00 3.00e-02 6.18e-02  -1.0 3.00e+00    -  9.83e-01 9.90e-01h  1
   2  0.0000000e+00 2.97e-04 9.90e+00  -1.0 3.00e-02    -  1.00e+00 9.90e-01h  1
   3  0.0000000e+00 7.66e-11 0.00e+00  -1.0 2.97e-04    -  1.00e+00 1.00e+00h  1

Number of Iterations....: 3

                                   (scaled)                 (unscaled)
Objective...............:   0.0000000000000000e+00    0.0000000000000000e+00
Dual infeasibility......:   0.0000000000000000e+00    0.0000000000000000e+00
Constraint violation....:   7.6645356728022307e-11    7.6645356728022307e-11
Variable bound violation:   0.0000000000000000e+00    0.0000000000000000e+00
Complementarity.........:   0.0000000000000000e+00    0.0000000000000000e+00
Overall NLP error.......:   7.6645356728022307e-11    7.6645356728022307e-11


Number of objective function evaluations             = 4
Number of objective gradient evaluations             = 4
Number of equality constraint evaluations            = 4
Number of inequality constraint evaluations          = 0
Number of equality constraint Jacobian evaluations   = 4
Number of inequality constraint Jacobian evaluations = 0
Number of Lagrangian Hessian evaluations             = 3
Total seconds in IPOPT                               = 0.062

EXIT: Optimal Solution Found.
Ipopt 3.14.19: linear_solver=mumps
output_file=ipopt.out
file_print_level=12


******************************************************************************
This program contains Ipopt, a library for large-scale nonlinear optimization.
 Ipopt is released as open source code under the Eclipse Public License (EPL).
         For more information visit https://github.com/coin-or/Ipopt
******************************************************************************

This is Ipopt version 3.14.19, running with linear solver MUMPS 5.8.1.

Number of nonzeros in equality constraint Jacobian...:      603
Number of nonzeros in inequality constraint Jacobian.:        0
Number of nonzeros in Lagrangian Hessian.............:       66

Total number of variables............................:      175
                     variables with only lower bounds:       91
                variables with lower and upper bounds:       22
                     variables with only upper bounds:        0
Total number of equality constraints.................:      175
Total number of inequality constraints...............:        0
        inequality constraints with only lower bounds:        0
   inequality constraints with lower and upper bounds:        0
        inequality constraints with only upper bounds:        0

iter    objective    inf_pr   inf_du lg(mu)  ||d||  lg(rg) alpha_du alpha_pr  ls
   0  0.0000000e+00 3.00e+00 1.00e+00  -1.0 0.00e+00    -  0.00e+00 0.00e+00   0
   1  0.0000000e+00 3.00e-02 6.18e-02  -1.0 3.00e+00    -  9.83e-01 9.90e-01h  1
   2  0.0000000e+00 2.97e-04 9.90e+00  -1.0 3.00e-02    -  1.00e+00 9.90e-01h  1
   3  0.0000000e+00 6.95e-11 0.00e+00  -1.0 2.97e-04    -  1.00e+00 1.00e+00h  1

Number of Iterations....: 3

                                   (scaled)                 (unscaled)
Objective...............:   0.0000000000000000e+00    0.0000000000000000e+00
Dual infeasibility......:   0.0000000000000000e+00    0.0000000000000000e+00
Constraint violation....:   6.9536154612137580e-11    6.9536154612137580e-11
Variable bound violation:   0.0000000000000000e+00    0.0000000000000000e+00
Complementarity.........:   0.0000000000000000e+00    0.0000000000000000e+00
Overall NLP error.......:   6.9536154612137580e-11    6.9536154612137580e-11


Number of objective function evaluations             = 4
Number of objective gradient evaluations             = 4
Number of equality constraint evaluations            = 4
Number of inequality constraint evaluations          = 0
Number of equality constraint Jacobian evaluations   = 4
Number of inequality constraint Jacobian evaluations = 0
Number of Lagrangian Hessian evaluations             = 3
Total seconds in IPOPT                               = 0.062

EXIT: Optimal Solution Found.
Ipopt 3.14.19: linear_solver=mumps
output_file=ipopt.out
file_print_level=12


******************************************************************************
This program contains Ipopt, a library for large-scale nonlinear optimization.
 Ipopt is released as open source code under the Eclipse Public License (EPL).
         For more information visit https://github.com/coin-or/Ipopt
******************************************************************************

This is Ipopt version 3.14.19, running with linear solver MUMPS 5.8.1.

Number of nonzeros in equality constraint Jacobian...:      603
Number of nonzeros in inequality constraint Jacobian.:        0
Number of nonzeros in Lagrangian Hessian.............:       66

Total number of variables............................:      175
                     variables with only lower bounds:       91
                variables with lower and upper bounds:       22
                     variables with only upper bounds:        0
Total number of equality constraints.................:      175
Total number of inequality constraints...............:        0
        inequality constraints with only lower bounds:        0
   inequality constraints with lower and upper bounds:        0
        inequality constraints with only upper bounds:        0

iter    objective    inf_pr   inf_du lg(mu)  ||d||  lg(rg) alpha_du alpha_pr  ls
   0  0.0000000e+00 3.00e+00 1.00e+00  -1.0 0.00e+00    -  0.00e+00 0.00e+00   0
   1  0.0000000e+00 3.00e-02 6.18e-02  -1.0 3.00e+00    -  9.83e-01 9.90e-01h  1
   2  0.0000000e+00 2.97e-04 9.90e+00  -1.0 3.00e-02    -  1.00e+00 9.90e-01h  1
   3  0.0000000e+00 5.75e-11 0.00e+00  -1.0 2.97e-04    -  1.00e+00 1.00e+00h  1

Number of Iterations....: 3

                                   (scaled)                 (unscaled)
Objective...............:   0.0000000000000000e+00    0.0000000000000000e+00
Dual infeasibility......:   0.0000000000000000e+00    0.0000000000000000e+00
Constraint violation....:   5.7547300258420364e-11    5.7547300258420364e-11
Variable bound violation:   0.0000000000000000e+00    0.0000000000000000e+00
Complementarity.........:   0.0000000000000000e+00    0.0000000000000000e+00
Overall NLP error.......:   5.7547300258420364e-11    5.7547300258420364e-11


Number of objective function evaluations             = 4
Number of objective gradient evaluations             = 4
Number of equality constraint evaluations            = 4
Number of inequality constraint evaluations          = 0
Number of equality constraint Jacobian evaluations   = 4
Number of inequality constraint Jacobian evaluations = 0
Number of Lagrangian Hessian evaluations             = 3
Total seconds in IPOPT                               = 0.060

EXIT: Optimal Solution Found.
Ipopt 3.14.19: linear_solver=mumps
output_file=ipopt.out
file_print_level=12


******************************************************************************
This program contains Ipopt, a library for large-scale nonlinear optimization.
 Ipopt is released as open source code under the Eclipse Public License (EPL).
         For more information visit https://github.com/coin-or/Ipopt
******************************************************************************

This is Ipopt version 3.14.19, running with linear solver MUMPS 5.8.1.

Number of nonzeros in equality constraint Jacobian...:      603
Number of nonzeros in inequality constraint Jacobian.:        0
Number of nonzeros in Lagrangian Hessian.............:       66

Total number of variables............................:      175
                     variables with only lower bounds:       91
                variables with lower and upper bounds:       22
                     variables with only upper bounds:        0
Total number of equality constraints.................:      175
Total number of inequality constraints...............:        0
        inequality constraints with only lower bounds:        0
   inequality constraints with lower and upper bounds:        0
        inequality constraints with only upper bounds:        0

iter    objective    inf_pr   inf_du lg(mu)  ||d||  lg(rg) alpha_du alpha_pr  ls
   0  0.0000000e+00 3.00e+00 1.00e+00  -1.0 0.00e+00    -  0.00e+00 0.00e+00   0
   1  0.0000000e+00 3.00e-02 6.18e-02  -1.0 3.00e+00    -  9.83e-01 9.90e-01h  1
   2  0.0000000e+00 2.97e-04 9.90e+00  -1.0 3.00e-02    -  1.00e+00 9.90e-01h  1
   3  0.0000000e+00 8.88e-11 0.00e+00  -1.0 2.97e-04    -  1.00e+00 1.00e+00h  1

Number of Iterations....: 3

                                   (scaled)                 (unscaled)
Objective...............:   0.0000000000000000e+00    0.0000000000000000e+00
Dual infeasibility......:   0.0000000000000000e+00    0.0000000000000000e+00
Constraint violation....:   8.8812956988704173e-11    8.8812956988704173e-11
Variable bound violation:   0.0000000000000000e+00    0.0000000000000000e+00
Complementarity.........:   0.0000000000000000e+00    0.0000000000000000e+00
Overall NLP error.......:   8.8812956988704173e-11    8.8812956988704173e-11


Number of objective function evaluations             = 4
Number of objective gradient evaluations             = 4
Number of equality constraint evaluations            = 4
Number of inequality constraint evaluations          = 0
Number of equality constraint Jacobian evaluations   = 4
Number of inequality constraint Jacobian evaluations = 0
Number of Lagrangian Hessian evaluations             = 3
Total seconds in IPOPT                               = 0.062

EXIT: Optimal Solution Found.
Ipopt 3.14.19: linear_solver=mumps
output_file=ipopt.out
file_print_level=12


******************************************************************************
This program contains Ipopt, a library for large-scale nonlinear optimization.
 Ipopt is released as open source code under the Eclipse Public License (EPL).
         For more information visit https://github.com/coin-or/Ipopt
******************************************************************************

This is Ipopt version 3.14.19, running with linear solver MUMPS 5.8.1.

Number of nonzeros in equality constraint Jacobian...:     6183
Number of nonzeros in inequality constraint Jacobian.:        0
Number of nonzeros in Lagrangian Hessian.............:      980

Total number of variables............................:     1588
                     variables with only lower bounds:      728
                variables with lower and upper bounds:      246
                     variables with only upper bounds:        0
Total number of equality constraints.................:     1588
Total number of inequality constraints...............:        0
        inequality constraints with only lower bounds:        0
   inequality constraints with lower and upper bounds:        0
        inequality constraints with only upper bounds:        0

iter    objective    inf_pr   inf_du lg(mu)  ||d||  lg(rg) alpha_du alpha_pr  ls
   0  0.0000000e+00 9.90e+01 1.00e+00  -1.0 0.00e+00    -  0.00e+00 0.00e+00   0
   1  0.0000000e+00 9.98e+01 1.08e+01  -1.0 4.78e+02    -  9.83e-01 3.87e-03h  9
   2  0.0000000e+00 1.01e+02 2.07e+01  -1.0 5.28e+02    -  1.00e+00 3.87e-03h  9
   3  0.0000000e+00 1.01e+02 3.07e+01  -1.0 1.09e+03    -  1.00e+00 3.87e-03h  9
   4  0.0000000e+00 1.02e+02 4.07e+01  -1.0 1.68e+03    -  1.00e+00 3.87e-03h  9
   5  0.0000000e+00 1.03e+02 5.06e+01  -1.0 2.26e+03    -  1.00e+00 3.87e-03h  9
   6  0.0000000e+00 1.04e+02 6.06e+01  -1.0 2.83e+03    -  1.00e+00 3.87e-03h  9
   7  0.0000000e+00 1.04e+02 7.05e+01  -1.0 3.40e+03    -  1.00e+00 3.87e-03h  9
   8  0.0000000e+00 1.05e+02 8.05e+01  -1.0 3.96e+03    -  1.00e+00 3.87e-03h  9
   9  0.0000000e+00 1.06e+02 9.05e+01  -1.0 4.52e+03    -  1.00e+00 3.87e-03h  9
iter    objective    inf_pr   inf_du lg(mu)  ||d||  lg(rg) alpha_du alpha_pr  ls
  10  0.0000000e+00 1.06e+02 1.00e+02  -1.0 5.06e+03    -  1.00e+00 3.87e-03h  9
  11  0.0000000e+00 7.06e+04 1.11e+00  -1.0 5.60e+03    -  1.00e+00 9.90e-01w  1
  12  0.0000000e+00 7.05e+02 1.03e+01  -1.0 7.20e+04    -  1.00e+00 9.90e-01w  1
  13  0.0000000e+00 6.86e-04 1.00e-06  -1.0 7.20e+02    -  1.00e+00 1.00e+00h  1
  14  0.0000000e+00 1.82e-12 0.00e+00  -3.8 6.87e-04    -  1.00e+00 1.00e+00h  1

Number of Iterations....: 14

                                   (scaled)                 (unscaled)
Objective...............:   0.0000000000000000e+00    0.0000000000000000e+00
Dual infeasibility......:   0.0000000000000000e+00    0.0000000000000000e+00
Constraint violation....:   1.8189894035458565e-12    1.8189894035458565e-12
Variable bound violation:   0.0000000000000000e+00    0.0000000000000000e+00
Complementarity.........:   0.0000000000000000e+00    0.0000000000000000e+00
Overall NLP error.......:   1.8189894035458565e-12    1.8189894035458565e-12


Number of objective function evaluations             = 125
Number of objective gradient evaluations             = 15
Number of equality constraint evaluations            = 125
Number of inequality constraint evaluations          = 0
Number of equality constraint Jacobian evaluations   = 15
Number of inequality constraint Jacobian evaluations = 0
Number of Lagrangian Hessian evaluations             = 14
Total seconds in IPOPT                               = 0.873

EXIT: Optimal Solution Found.
Ipopt 3.14.19: linear_solver=mumps
output_file=ipopt.out
file_print_level=12


******************************************************************************
This program contains Ipopt, a library for large-scale nonlinear optimization.
 Ipopt is released as open source code under the Eclipse Public License (EPL).
         For more information visit https://github.com/coin-or/Ipopt
******************************************************************************

This is Ipopt version 3.14.19, running with linear solver MUMPS 5.8.1.

Number of nonzeros in equality constraint Jacobian...:     6370
Number of nonzeros in inequality constraint Jacobian.:        0
Number of nonzeros in Lagrangian Hessian.............:     1026

Total number of variables............................:     1608
                     variables with only lower bounds:      732
                variables with lower and upper bounds:      256
                     variables with only upper bounds:        0
Total number of equality constraints.................:     1598
Total number of inequality constraints...............:        0
        inequality constraints with only lower bounds:        0
   inequality constraints with lower and upper bounds:        0
        inequality constraints with only upper bounds:        0

iter    objective    inf_pr   inf_du lg(mu)  ||d||  lg(rg) alpha_du alpha_pr  ls
   0 -1.1297032e+01 2.65e+00 1.10e+00  -1.0 0.00e+00    -  0.00e+00 0.00e+00   0
   1 -1.1233458e+01 5.58e+00 8.08e-01  -1.0 1.03e+03    -  9.89e-01 9.90e-01h  1
   2 -1.1158470e+01 2.01e+02 2.79e+01  -1.0 4.57e+03    -  9.72e-01 1.00e+00f  1
   3 -1.0638835e+01 3.36e+03 5.57e+01  -1.0 1.30e+04    -  1.00e+00 1.00e+00f  1
   4 -1.0202469e+01 8.78e+02 1.95e+01  -1.0 1.27e+04    -  1.00e+00 9.90e-01h  1
   5 -1.0169712e+01 1.64e+01 6.77e+00  -1.0 2.77e+02    -  1.00e+00 1.00e+00h  1
   6 -1.0166354e+01 2.17e-01 9.15e-02  -1.0 1.10e+02    -  1.00e+00 1.00e+00h  1
   7 -1.0316752e+01 3.02e+01 1.05e+06  -3.8 2.25e+02    -  8.95e-01 1.00e+00h  1
   8 -1.0826504e+01 1.54e+03 4.41e+05  -3.8 3.83e+03    -  5.79e-01 1.00e+00h  1
   9 -1.1055198e+01 2.63e+02 8.46e+04  -3.8 4.36e+03    -  8.08e-01 1.00e+00h  1
iter    objective    inf_pr   inf_du lg(mu)  ||d||  lg(rg) alpha_du alpha_pr  ls
  10 -1.1242326e+01 1.36e+02 3.47e+01  -3.8 2.47e+03    -  1.00e+00 1.00e+00h  1
  11 -1.1236912e+01 1.12e+02 1.43e+01  -3.8 8.83e+00  -4.0 5.86e-01 1.80e-01h  1
  12 -1.1267424e+01 9.44e+01 4.85e+00  -3.8 4.45e+03    -  1.00e+00 1.85e-01h  1
  13 -1.1239367e+01 3.00e+00 8.67e+00  -3.8 4.23e+01  -5.0 1.56e-01 1.00e+00f  1
  14 -1.1245305e+01 1.25e-01 1.60e+00  -3.8 2.63e+01  -5.4 1.00e+00 1.00e+00h  1
  15 -1.1268889e+01 1.71e+00 1.27e+00  -3.8 2.19e+03    -  1.00e+00 2.15e-01h  2
  16 -1.1277268e+01 2.34e-01 4.31e-02  -3.8 3.72e+01  -5.9 1.00e+00 1.00e+00h  1
  17 -1.1277534e+01 5.30e-04 8.07e-04  -3.8 1.77e+00  -4.6 1.00e+00 1.00e+00h  1
  18 -1.1282469e+01 4.32e-02 3.50e+01  -5.7 1.67e+01  -5.1 9.98e-01 1.00e+00h  1
  19 -1.1282772e+01 1.45e-04 7.53e-03  -5.7 8.99e-01  -3.7 1.00e+00 1.00e+00h  1
iter    objective    inf_pr   inf_du lg(mu)  ||d||  lg(rg) alpha_du alpha_pr  ls
  20 -1.1283407e+01 1.19e-03 2.36e-02  -5.7 2.39e+00  -4.2 1.00e+00 9.14e-01h  1
  21 -1.1303256e+01 1.25e+00 3.73e+00  -5.7 8.75e+03    -  1.81e-03 5.67e-02f  1
  22 -1.1303282e+01 1.22e+00 3.97e+00  -5.7 8.25e+00  -4.3 1.78e-01 2.36e-02f  1
  23 -1.1306837e+01 1.20e+00 3.61e+00  -5.7 7.29e+02    -  8.68e-02 4.53e-02f  1
  24 -1.1307507e+01 9.29e-03 5.66e-01  -5.7 5.62e+00  -4.7 3.83e-01 1.00e+00f  1
  25 -1.1310054e+01 5.52e-02 8.21e-01  -5.7 7.39e+02    -  1.00e+00 4.95e-02h  1
  26 -1.1315088e+01 4.69e-01 6.03e-01  -5.7 9.40e+02    -  1.00e+00 2.32e-01f  1
  27 -1.1317167e+01 1.29e+00 3.85e-01  -5.7 6.48e+02    -  1.00e+00 3.64e-01h  1
  28 -1.1317691e+01 2.54e+00 1.54e-01  -5.7 4.15e+02    -  1.00e+00 5.99e-01f  1
  29 -1.1317737e+01 2.04e+00 6.88e-02  -5.7 2.35e+02    -  1.00e+00 1.00e+00f  1
iter    objective    inf_pr   inf_du lg(mu)  ||d||  lg(rg) alpha_du alpha_pr  ls
  30 -1.1317670e+01 2.27e-02 2.08e-04  -5.7 2.36e+01    -  1.00e+00 1.00e+00h  1
  31 -1.1317669e+01 1.33e-08 4.18e-08  -5.7 1.98e-02    -  1.00e+00 1.00e+00h  1
  32 -1.1318050e+01 8.16e-04 2.57e-01  -8.6 2.28e+00    -  9.99e-01 1.00e+00h  1
  33 -1.1318051e+01 2.84e-07 9.25e-07  -8.6 4.52e-02    -  1.00e+00 1.00e+00h  1
  34 -1.1318051e+01 1.46e-11 9.66e-12  -8.6 1.27e-04    -  1.00e+00 1.00e+00h  1

Number of Iterations....: 34

                                   (scaled)                 (unscaled)
Objective...............:  -1.1318050921096274e+01   -1.1318050921096274e+01
Dual infeasibility......:   9.6555731979042984e-12    9.6555731979042984e-12
Constraint violation....:   3.4718459468342268e-12    1.4551915228366852e-11
Variable bound violation:   2.1149733520076097e-08    2.1149733520076097e-08
Complementarity.........:   2.5059065525673426e-09    2.5059065525673426e-09
Overall NLP error.......:   2.5059065525673426e-09    2.5059065525673426e-09


Number of objective function evaluations             = 38
Number of objective gradient evaluations             = 35
Number of equality constraint evaluations            = 38
Number of inequality constraint evaluations          = 0
Number of equality constraint Jacobian evaluations   = 35
Number of inequality constraint Jacobian evaluations = 0
Number of Lagrangian Hessian evaluations             = 34
Total seconds in IPOPT                               = 3.409

EXIT: Optimal Solution Found.
Number of Iterations....: 34

                                   (scaled)                 (unscaled)
Objective...............:  -1.1297031553004647e+01   -1.1297031553004647e+01
Dual infeasibility......:  1.1005773374439178e+00   1.1005773374439178e+00
Constraint violation....:  2.6492048506854999e+00   2.6492048506854999e+00
Complementarity.........:  3.9700001003000000e+02   3.9700001003000000e+02
Overall NLP error.......:  3.9700001003000000e+02   3.9700001003000000e+02

Number of objective function evaluations             = 38
Number of objective gradient evaluations             = 35
Number of equality constraint evaluations            = 38
Number of inequality constraint evaluations          = 0
Number of equality constraint Jacobian evaluations   = 35
Number of inequality constraint Jacobian evaluations = 0
Number of Lagrangian Hessian evaluations             = 34
Total CPU secs in IPOPT (w/o function evaluations)   = None
Total CPU secs in NLP function evaluations           = None
EXIT: Optimal Solution Found.
Optimal experiment values: 
	Initial concentration: 5.00
	Temperature values: [481.88, 300.00, 300.00, 300.00, 300.00, 300.00, 300.00, 300.00, 300.00]
FIM at optimal design:
 [[  1731.79089055   1442.18099318  -3647.74691349  -7115.51970488]
 [  1442.18099318   3479.17598012  -2710.24342004 -16836.77882308]
 [ -3647.74691349  -2710.24342004   7809.41772632  13457.72531516]
 [ -7115.51970488 -16836.77882308  13457.72531516  82181.28341609]]
Objective value at optimal design: 11.32
['CA[0]', 'T[0]', 'T[0.125]', 'T[0.25]', 'T[0.375]', 'T[0.5]', 'T[0.625]', 'T[0.75]', 'T[0.875]', 'T[1]']
['Build Time', 'Experiment Design', 'Experiment Design Names', 'Experiment Output Names', 'Experiment Outputs', 'FIM', 'FIM Condition Number', 'Finite Difference Scheme', 'Finite Difference Step', 'Initialization Time', 'Measurement Error', 'Measurement Error Names', 'Nominal Parameter Scaling', 'Objective expression', 'Prior FIM', 'Sensitivity Matrix', 'Solve Time', 'Solver Status', 'Termination Condition', 'Termination Message', 'Unknown Parameter Names', 'Unknown Parameters', 'Wall-clock Time', 'log10 A-opt', 'log10 D-opt', 'log10 E-opt']
Solve time (s): 3.4587494999868795
Build time (s): 0.7457980000181124
Initialization time (s): 0.9200004159938544
Total wall time (s): 5.124547915998846
